centroides = 0;
nNurses = 261;
hours = 98;
demand = [28 51 54 7 59 6 31 35 48 13 7 39 36 21 0 14 42 32 33 7 44 37 35 44 9 1 46 3 63 64 2 40 49 3 25 56 33 33 63 47 0 47 61 3 59 5 26 62 64 28 56 5 9 62 33 35 22 60 6 63 65 39 30 48 13 24 1 50 36 59 27 42 61 21 50 21 39 10 30 12 42 56 42 23 56 13 8 3 29 48 43 44 29 20 30 25 6 45];
minHours = 8;
maxHours = 34;
maxConsec = 6;
maxPresence = 39;